c ---- [ banner ] ------------------------------------------------------------
c
c Kissat SAT Solver
c 
c Copyright (c) 2021-2024 Armin Biere University of Freiburg
c Copyright (c) 2019-2021 Armin Biere Johannes Kepler University Linz
c 
c Version 4.0.1 43f02cf3e992cb44653b35e5cb26f93281552ae0
c gcc (Ubuntu 13.2.0-23ubuntu4) 13.2.0 -W -Wall -O3 -DNDEBUG
c Thu Sep 12 12:27:46 CEST 2024 Linux abryzen9 6.8.0-41-generic x86_64
c
c ---- [ parsing ] -----------------------------------------------------------
c
c opened and reading DIMACS file:
c
c   /data/artifact/AMulet2.0_artifact/exp4/cnf_resyn3_64/64_64_U_SP_DT_LF_GenMul_resyn3.cnf
c
c parsed 'p cnf 25895 115635' header
c closing input after reading 2290976 bytes (2 MB)
c finished parsing after 0.03 seconds
c
c ---- [ options ] -----------------------------------------------------------
c
c --stable=0                       (different from default '1')
c
c ---- [ solving ] -----------------------------------------------------------
c
c  seconds switched rate     size/glue tier1  binary           remaining
c         MB reductions conflicts size  tier2     irredundant
c          level restarts redundant glue  trail           variables
c
c *  0.03 10 0 0 0  0 0   0   0 0.0 0 0 0 0 0% 10721 104912 25892 100%
c (  0.05 11 0 0 0  0 0   0   0 0.0 0 0 0 0 0% 10721 104912 25892 100%
c .  0.06 11 0 0 0  0 0   0   0 0.0 0 0 0 0 0% 10717 104912 25892 100%
c f  0.30 15 0 0 0  0 0   0   0 0.0 0 0 0 0 0% 15680 96998 28700 111%
c e  0.49 24 0 0 0  0 0   0   0 0.0 0 0 0 0 0% 9636 105478 19518 75%
c )  0.49 24 0 0 0  0 0   0   0 0.0 0 0 0 0 0% 9636 105478 19518 75%
c {  0.52 24 0 0 0  0 0   0   0 0.0 0 0 2 6 0% 9636 105478 19518 75%
c -  0.80 24 146 0 1 249 30 1001 775 3.1 17 5 3 10 22% 9684 105478 19518 75%
c -  1.12 24 180 0 2 399 37 2002 1380 4.0 26 7 3 10 26% 9735 105478 19518 75%
c d  1.17 24 292 0 2 408 33 2502 1801 3.9 24 6 3 10 25% 9722 105478 19507 75%
c u  1.20 24 292 0 2 408 33 2502 1501 3.9 24 6 3 10 25% 9734 105478 19507 75%
c v  1.23 24 292 0 2 408 33 2502 1274 3.9 24 6 3 10 25% 9734 105478 19507 75%
c w  1.25 24 292 0 2 408 33 2502 1274 3.9 24 6 3 10 25% 9734 105478 19507 75%
c x  1.27 24 292 0 2 408 33 2502 1274 3.9 24 6 3 10 25% 9734 105313 19507 75%
c d  1.28 24 292 0 2 408 33 2502 1274 3.9 24 6 3 10 25% 9732 105313 19506 75%
c f  1.32 24 292 0 2 408 33 2502 1274 3.9 24 6 3 10 25% 10364 103858 20132 78%
c c  1.39 22 292 0 2 408 33 2502 1274 3.9 24 6 3 10 25% 10370 103846 20130 78%
c d  1.39 22 292 0 2 408 33 2502 1274 3.9 24 6 3 10 25% 10366 103846 20130 78%
c u  1.41 22 292 0 2 408 33 2502 1226 3.9 24 6 3 10 25% 10367 103846 20130 78%
c v  1.43 22 292 0 2 408 33 2502 1190 3.9 24 6 3 10 25% 10367 103846 20130 78%
c
c  seconds   switched   rate       size/glue tier1     binary           remaining
c         MB  reductions conflicts       size  tier2       irredundant
c           level restarts    redundant    glue    trail           variables
c
c w  1.45 22 292 0 2 408 33 2502 1188 3.9 24 6 3 10 25% 10367 103846 20130 78%
c x  1.47 22 292 0 2 408 33 2502 1188 3.9 24 6 3 10 25% 10367 103843 20130 78%
c =  1.56 22 292 0 2 408 33 2502 1188 3.9 24 6 3 10 25% 10375 103843 20126 78%
c d  1.57 22 292 0 2 408 33 2502 1188 3.9 24 6 3 10 25% 10363 103843 20126 78%
c f  1.61 22 292 0 2 408 33 2502 1188 3.9 24 6 3 10 25% 10419 103740 20162 78%
c -  1.92 25 258 0 3 530 33 3418 1637 3.9 24 6 3 9 26% 10467 103740 20162 78%
c -  2.47 25 301 0 4 790 39 5151 2806 3.9 26 7 3 11 26% 10508 103740 20162 78%
c -  3.03 25 301 0 5 1019 37 7151 3936 3.7 27 7 3 10 26% 10571 103740 20162 78%
c d  3.15 25 320 0 5 1059 37 7706 4393 3.8 26 7 3 10 26% 10480 103740 20111 78%
c u  3.19 25 320 0 5 1059 37 7706 3758 3.8 26 7 3 10 26% 10500 103740 20111 78%
c v  3.23 25 320 0 5 1059 37 7706 3431 3.8 26 7 3 10 26% 10500 103740 20111 78%
c w  3.29 25 320 0 5 1059 37 7706 3426 3.8 26 7 3 10 26% 10500 103740 20111 78%
c =  3.46 25 320 0 5 1059 37 7706 3426 3.8 26 7 3 10 26% 10900 103738 19911 77%
c d  3.47 25 320 0 5 1059 37 7706 3414 3.8 26 7 3 10 26% 10389 103738 19910 77%
c t  3.49 25 320 0 5 1059 37 7706 3414 3.8 26 7 3 10 26% 10385 103738 19910 77%
c f  3.55 25 320 0 5 1059 37 7706 3414 3.8 26 7 3 10 26% 11266 102402 20352 79%
c u  3.59 25 320 0 5 1059 37 7706 3311 3.8 26 7 3 10 26% 11269 102402 20352 79%
c v  3.62 25 320 0 5 1059 37 7706 3231 3.8 26 7 3 10 26% 11269 102402 20352 79%
c w  3.68 25 320 0 5 1059 37 7706 3227 3.8 26 7 3 10 26% 11269 102402 20352 79%
c x  3.72 25 320 0 5 1059 37 7706 3227 3.8 26 7 3 10 26% 11269 102345 20352 79%
c
c  seconds   switched    rate       size/glue tier1     binary           remaining
c         MB  reductions  conflicts       size  tier2       irredundant
c           level  restarts    redundant    glue    trail           variables
c
c =  3.86 25 320 0 5 1059 37 7706 3227 3.8 26 7 3 10 26% 11893 102345 20040 77%
c d  3.87 25 320 0 5 1059 37 7706 3226 3.8 26 7 3 10 26% 11043 102345 20039 77%
c t  3.89 25 320 0 5 1059 37 7706 3226 3.8 26 7 3 10 26% 10968 102345 20039 77%
c f  3.94 25 320 0 5 1059 37 7706 3226 3.8 26 7 3 10 26% 14275 97379 21698 84%
c -  4.35 25 335 0 6 1171 36 9389 3981 4.0 29 7 2 9 26% 14357 97379 21698 84%
c o  4.56 25 337 0 6 1233 36 10002 4512 4.1 29 7 2 9 27% 14378 97379 21698 84%
c -  5.06 25 308 0 7 1365 34 11839 5381 4.0 28 7 2 8 27% 14413 97379 21698 84%
c s  5.30 25 309 0 7 1416 34 12508 5980 4.2 29 7 2 8 27% 14424 95908 21698 84%
c e  5.42 25 309 0 7 1416 34 12508 5980 4.2 29 7 2 8 27% 13794 96210 21269 82%
c s  5.43 25 309 0 7 1416 34 12508 5980 4.2 29 7 2 8 27% 13798 95901 21269 82%
c e  5.44 25 309 0 7 1416 34 12508 5980 4.2 29 7 2 8 27% 13737 95945 21242 82%
c ^  5.44 25 309 0 7 1416 34 12508 5980 4.2 29 7 2 8 27% 13737 95945 21242 82%
c -  6.12 25 306 0 8 1629 34 14486 6393 4.3 30 7 2 8 28% 13816 95945 21242 82%
c c  6.56 25 329 0 8 1743 34 15785 7568 4.3 30 7 2 8 28% 13880 95778 21199 82%
c d  6.56 25 329 0 8 1743 34 15785 7525 4.3 30 7 2 8 28% 13306 95778 20910 81%
c u  6.61 25 329 0 8 1743 34 15785 6625 4.3 30 7 2 8 28% 13321 95778 20910 81%
c v  6.66 25 329 0 8 1743 34 15785 5739 4.3 30 7 2 8 28% 13323 95778 20910 81%
c w  6.79 25 329 0 8 1743 34 15785 5711 4.3 30 7 2 8 28% 13323 95778 20910 81%
c =  7.03 25 329 0 8 1743 34 15785 5711 4.3 30 7 2 8 28% 13751 95778 20696 80%
c d  7.04 25 329 0 8 1743 34 15785 5671 4.3 30 7 2 8 28% 13220 95778 20695 80%
c
c  seconds   switched    rate        size/glue tier1    binary          remaining
c         MB  reductions   conflicts       size  tier2      irredundant
c           level  restarts     redundant    glue   trail          variables
c
c t  7.06 25 329 0 8 1743 34 15785 5671 4.3 30 7 2 8 28% 13159 95778 20695 80%
c f  7.12 25 329 0 8 1743 34 15785 5671 4.3 30 7 2 8 28% 13184 95719 20708 80%
c u  7.18 25 329 0 8 1743 34 15785 5469 4.3 30 7 2 8 28% 13186 95719 20708 80%
c v  7.21 25 329 0 8 1743 34 15785 5337 4.3 30 7 2 8 28% 13186 95719 20708 80%
c w  7.33 25 329 0 8 1743 34 15785 5315 4.3 30 7 2 8 28% 13186 95719 20708 80%
c =  7.57 25 329 0 8 1743 34 15785 5315 4.3 30 7 2 8 28% 15338 95719 19632 76%
c d  7.58 25 329 0 8 1743 34 15785 5233 4.3 30 7 2 8 28% 12298 95719 19632 76%
c t  7.60 25 329 0 8 1743 34 15785 5233 4.3 30 7 2 8 28% 12297 95719 19632 76%
c -  7.97 25 328 0 9 1834 33 17314 5807 4.2 29 7 2 8 27% 12330 95719 19632 76%
c o  8.84 25 321 0 9 2119 33 20063 8222 4.3 30 7 2 8 28% 12387 95719 19632 76%
c -  9.03 25 319 0 10 2183 33 20314 7550 4.4 31 7 2 8 28% 12387 95719 19632 76%
c -  9.88 25 307 0 11 2461 33 23476 9118 4.3 31 7 2 8 27% 12449 95719 19632 76%
c s 10.38 25 308 0 11 2608 33 25011 10439 4.4 31 7 2 8 28% 12486 92035 19632 76%
c e 10.51 25 308 0 11 2608 33 25011 10439 4.4 31 7 2 8 28% 9400 96527 17918 69%
c s 10.52 25 308 0 11 2608 33 25011 10439 4.4 31 7 2 8 28% 9401 96144 17918 69%
c e 10.53 25 308 0 11 2608 33 25011 10439 4.4 31 7 2 8 28% 9387 96163 17906 69%
c ^ 10.53 25 308 0 11 2608 33 25011 10439 4.4 31 7 2 8 28% 9387 96163 17906 69%
c - 10.98 25 310 0 12 2730 33 26794 9251 4.4 31 7 2 8 28% 9466 96163 17906 69%
c c 11.09 25 309 0 12 2741 33 26913 9364 4.4 31 7 2 8 28% 9544 95653 17829 69%
c d 11.10 25 309 0 12 2741 33 26913 9235 4.4 31 7 2 8 28% 9272 95653 17758 69%
c
c  seconds   switched     rate        size/glue tier1    binary         remaining
c         MB   reductions   conflicts       size  tier2     irredundant
c           level   restarts     redundant    glue   trail         variables
c
c u 11.15 25 309 0 12 2741 33 26913 8019 4.4 31 7 2 8 28% 9303 95653 17758 69%
c v 11.21 25 309 0 12 2741 33 26913 7093 4.4 31 7 2 8 28% 9306 95653 17758 69%
c w 11.24 25 309 0 12 2741 33 26913 7089 4.4 31 7 2 8 28% 9306 95653 17758 69%
c x 11.33 25 309 0 12 2741 33 26913 7089 4.4 31 7 2 8 28% 9309 94520 17758 69%
c = 11.66 25 309 0 12 2741 33 26913 7089 4.4 31 7 2 8 28% 13395 94520 15715 61%
c d 11.67 25 309 0 12 2741 33 26913 6990 4.4 31 7 2 8 28% 9221 94520 15706 61%
c t 11.68 25 309 0 12 2741 33 26913 6990 4.4 31 7 2 8 28% 9198 94520 15706 61%
c f 11.76 25 309 0 12 2741 33 26913 6990 4.4 31 7 2 8 28% 9206 94488 15713 61%
c c 11.83 25 309 0 12 2741 33 26913 6974 4.4 31 7 2 8 28% 9245 94320 15692 61%
c d 11.83 25 309 0 12 2741 33 26913 6974 4.4 31 7 2 8 28% 9203 94320 15692 61%
c u 11.87 25 309 0 12 2741 33 26913 6406 4.4 31 7 2 8 28% 9211 94320 15692 61%
c v 11.91 25 309 0 12 2741 33 26913 6295 4.4 31 7 2 8 28% 9212 94320 15692 61%
c w 11.93 25 309 0 12 2741 33 26913 6294 4.4 31 7 2 8 28% 9212 94320 15692 61%
c = 12.26 25 309 0 12 2741 33 26913 6294 4.4 31 7 2 8 28% 12934 94308 13831 53%
c d 12.27 25 309 0 12 2741 33 26913 6144 4.4 31 7 2 8 28% 9135 94308 13831 53%
c t 12.29 25 309 0 12 2741 33 26913 6144 4.4 31 7 2 8 28% 9075 94308 13831 53%
c f 12.35 25 309 0 12 2741 33 26913 6144 4.4 31 7 2 8 28% 9101 94207 13852 53%
c - 13.12 25 291 0 13 3066 32 30258 8078 4.3 31 7 2 8 27% 9172 94202 13852 53%
c - 14.47 25 279 0 14 3628 32 33863 10182 4.2 31 7 2 7 29% 9194 94201 13852 53%
c i 15.31 25 270 0 14 3902 31 37175 13084 4.1 31 8 2 7 29% 9244 94197 13851 53%
c
c  seconds   switched     rate         size/glue tier1    binary         remaining
c         MB   reductions   conflicts        size  tier2     irredundant
c           level   restarts      redundant    glue   trail         variables
c
c - 15.39 25 270 0 15 3942 31 37604 11761 4.1 31 8 2 7 29% 9246 94197 13851 53%
c i 15.98 25 267 0 15 4194 31 39380 13397 4.1 32 8 2 7 29% 9264 94197 13850 53%
c o 16.06 25 264 0 15 4217 31 40096 13904 4.1 31 8 2 7 29% 9289 94197 13850 53%
c c 16.41 25 261 0 15 4366 31 41239 14984 4.1 32 8 2 7 29% 9355 93610 13748 53%
c d 16.41 25 261 0 15 4366 31 41239 14539 4.1 32 8 2 7 29% 9159 93604 13748 53%
c d 16.41 25 261 0 15 4366 31 41239 14538 4.1 32 8 2 7 29% 9153 93604 13745 53%
c u 16.45 25 261 0 15 4366 31 41239 12403 4.1 32 8 2 7 29% 9176 93604 13745 53%
c v 16.52 25 261 0 15 4366 31 41239 10769 4.1 32 8 2 7 29% 9186 93604 13745 53%
c w 16.57 25 261 0 15 4366 31 41239 10769 4.1 32 8 2 7 29% 9186 93604 13745 53%
c x 16.64 25 261 0 15 4366 31 41239 10768 4.1 32 8 2 7 29% 9190 77229 13745 53%
c = 16.87 25 261 0 15 4366 31 41239 10768 4.1 32 8 2 7 29% 9748 77229 13466 52%
c d 16.88 25 261 0 15 4366 31 41239 10738 4.1 32 8 2 7 29% 9169 77229 13460 52%
c t 16.89 25 261 0 15 4366 31 41239 10738 4.1 32 8 2 7 29% 9129 77229 13460 52%
c f 16.90 25 261 0 15 4366 31 41239 10738 4.1 32 8 2 7 29% 9136 77196 13468 52%
c c 16.94 25 261 0 15 4366 31 41239 10731 4.1 32 8 2 7 29% 9144 77166 13465 52%
c d 16.95 25 261 0 15 4366 31 41239 10731 4.1 32 8 2 7 29% 9138 77166 13465 52%
c u 16.98 25 261 0 15 4366 31 41239 9969 4.1 32 8 2 7 29% 9145 77166 13465 52%
c v 17.01 25 261 0 15 4366 31 41239 9723 4.1 32 8 2 7 29% 9147 77166 13465 52%
c w 17.11 25 261 0 15 4366 31 41239 9705 4.1 32 8 2 7 29% 9147 77166 13465 52%
c x 17.17 25 261 0 15 4366 31 41239 9703 4.1 32 8 2 7 29% 9148 67826 13465 52%
c
c  seconds   switched     rate        size/glue tier1    binary         remaining
c         MB   reductions   conflicts       size  tier2     irredundant
c           level   restarts     redundant    glue   trail         variables
c
c = 17.42 25 261 0 15 4366 31 41239 9703 4.1 32 8 2 7 29% 9264 67826 13407 52%
c d 17.42 25 261 0 15 4366 31 41239 9678 4.1 32 8 2 7 29% 9142 67826 13404 52%
c t 17.43 25 261 0 15 4366 31 41239 9678 4.1 32 8 2 7 29% 9138 67826 13404 52%
c - 17.45 25 260 0 16 4379 31 41479 8472 4.1 32 8 2 7 29% 9150 67826 13404 52%
c - 17.96 25 253 0 17 4767 30 45479 10507 4.0 32 8 2 7 29% 9217 67825 13404 52%
c i 18.38 25 247 0 17 5094 30 48802 13424 4.0 31 8 2 7 29% 9269 67822 13403 52%
c - 18.53 25 247 0 18 5197 30 49603 12459 4.0 32 8 2 7 29% 9272 67822 13403 52%
c s 18.79 25 241 0 18 5399 29 52114 14634 3.9 31 8 2 7 29% 9311 65566 13403 52%
c e 18.85 25 241 0 18 5399 29 52114 14634 3.9 31 8 2 7 29% 8862 66047 12998 50%
c 2 18.85 25 241 0 18 5399 29 52114 14634 3.9 31 8 2 7 29% 8861 66047 12998 50%
c s 18.86 25 241 0 18 5399 29 52114 14634 3.9 31 8 2 7 29% 8865 65610 12998 50%
c e 18.86 25 241 0 18 5399 29 52114 14634 3.9 31 8 2 7 29% 8845 65636 12983 50%
c ^ 18.86 25 241 0 18 5399 29 52114 14634 3.9 31 8 2 7 29% 8845 65636 12983 50%
c i 19.07 25 238 0 18 5563 29 53748 14691 3.9 31 8 2 7 29% 8887 65635 12982 50%
c - 19.08 25 239 0 19 5564 29 53846 12961 3.9 31 8 2 7 29% 8886 65626 12982 50%
c i 19.39 25 234 0 19 5792 29 56046 14951 3.9 31 8 2 7 29% 8917 65624 12981 50%
c i 19.43 25 233 0 19 5827 29 56347 15225 3.9 31 8 2 7 29% 8919 65623 12980 50%
c i 19.64 25 231 0 19 6009 28 57773 16542 3.8 30 8 2 7 29% 8935 65621 12979 50%
c i 19.64 25 230 0 19 6013 28 57797 16555 3.8 30 8 2 7 29% 8936 65621 12978 50%
c - 19.68 25 230 0 20 6027 28 58204 14563 3.8 30 8 2 7 29% 8936 65621 12978 50%
c
c  seconds   switched     rate         size/glue tier1    binary         remaining
c         MB   reductions   conflicts        size  tier2     irredundant
c           level   restarts      redundant    glue   trail         variables
c
c i 19.76 25 230 0 20 6081 28 58706 14985 3.8 30 8 2 7 29% 8946 65621 12976 50%
c d 19.78 25 229 0 20 6094 28 58905 14950 3.8 30 8 2 7 29% 8878 65562 12933 50%
c d 19.78 25 229 0 20 6094 28 58905 14948 3.8 30 8 2 7 29% 8864 65558 12926 50%
c u 19.82 25 229 0 20 6094 28 58905 12441 3.8 30 8 2 7 29% 8905 65558 12924 50%
c v 19.87 25 229 0 20 6094 28 58905 10981 3.8 30 8 2 7 29% 8903 65558 12924 50%
c w 19.90 25 229 0 20 6094 28 58905 10972 3.8 30 8 2 7 29% 8903 65558 12924 50%
c x 19.95 25 229 0 20 6094 28 58905 10970 3.8 30 8 2 7 29% 8910 65351 12924 50%
c = 20.20 25 229 0 20 6094 28 58905 10970 3.8 30 8 2 7 29% 9324 65292 12710 49%
c d 20.20 25 229 0 20 6094 28 58905 10821 3.8 30 8 2 7 29% 8856 65291 12701 49%
c t 20.21 25 229 0 20 6094 28 58905 10821 3.8 30 8 2 7 29% 8812 65291 12701 49%
c f 20.23 25 229 0 20 6094 28 58905 10821 3.8 30 8 2 7 29% 8826 65140 12722 49%
c c 20.26 25 229 0 20 6094 28 58905 10768 3.8 30 8 2 7 29% 8819 65047 12709 49%
c d 20.26 25 229 0 20 6094 28 58905 10768 3.8 30 8 2 7 29% 8793 65047 12709 49%
c u 20.29 25 229 0 20 6094 28 58905 10148 3.8 30 8 2 7 29% 8797 65047 12708 49%
c v 20.32 25 229 0 20 6094 28 58905 9930 3.8 30 8 2 7 29% 8797 65047 12708 49%
c w 20.36 25 229 0 20 6094 28 58905 9907 3.8 30 8 2 7 29% 8797 65047 12708 49%
c = 20.65 25 229 0 20 6094 28 58905 9907 3.8 30 8 2 7 29% 9027 64943 12583 49%
c d 20.66 25 229 0 20 6094 28 58905 9797 3.8 30 8 2 7 29% 8748 64943 12581 49%
c t 20.67 25 229 0 20 6094 28 58905 9797 3.8 30 8 2 7 29% 8699 64943 12581 49%
c f 20.67 25 229 0 20 6094 28 58905 9797 3.8 30 8 2 7 29% 8706 64895 12588 49%
c
c  seconds   switched     rate        size/glue tier1    binary         remaining
c         MB   reductions   conflicts       size  tier2     irredundant
c           level   restarts     redundant    glue   trail         variables
c
c i 20.67 25 229 0 20 6094 28 58905 9797 3.8 30 8 2 7 29% 8706 64895 12588 49%
c - 21.03 25 220 0 21 6388 27 62676 11477 3.7 29 8 2 7 29% 8751 64894 12588 49%
c i 21.23 25 214 0 21 6517 26 65241 13809 3.6 29 8 2 7 29% 8778 64894 12587 49%
c i 21.29 25 213 0 21 6558 26 66175 14628 3.6 29 8 2 7 29% 8786 64894 12586 49%
c - 21.40 25 211 0 22 6625 26 67260 13611 3.6 28 8 2 7 29% 8782 64894 12586 49%
c i 21.43 25 210 0 22 6655 26 67703 13959 3.6 28 8 2 7 29% 8790 64894 12585 49%
c i 21.47 25 208 0 22 6689 25 68355 14532 3.5 28 8 2 7 29% 8796 64894 12584 49%
c o 21.58 25 204 0 22 6829 25 70126 16119 3.5 28 8 2 7 29% 8807 64894 12584 49%
c - 21.67 25 199 0 23 6940 24 71950 15267 3.5 27 8 2 7 28% 8843 64894 12584 49%
c i 21.67 25 198 0 23 6943 24 72222 15449 3.5 27 8 2 7 28% 8856 64894 12582 49%
c i 21.71 25 195 0 23 6983 24 73366 16413 3.5 27 8 2 7 28% 8875 64894 12581 49%
c i 21.72 25 195 0 23 6987 24 73533 16566 3.5 27 8 2 7 28% 8879 64894 12580 49%
c i 21.73 25 194 0 23 7004 24 73872 16847 3.4 27 8 2 7 27% 8887 64894 12579 49%
c i 21.74 25 194 0 23 7009 24 73962 16925 3.4 27 8 2 7 27% 8891 64894 12578 49%
c i 21.75 25 192 0 23 7010 23 74666 17549 3.4 27 8 2 7 27% 8903 64894 12577 49%
c i 21.76 25 191 0 23 7018 23 74955 17761 3.4 27 8 2 7 27% 8909 64894 12576 49%
c i 21.76 25 190 0 23 7018 23 75058 17844 3.4 27 8 2 7 27% 8913 64894 12574 49%
c i 21.77 25 190 0 23 7018 23 75155 17898 3.4 27 8 2 7 27% 8920 64894 12561 49%
c i 21.77 25 190 0 23 7018 23 75156 17898 3.4 27 8 2 7 27% 8920 64894 12560 49%
c i 21.77 25 190 0 23 7018 23 75157 17898 3.4 27 8 2 7 27% 8920 64894 12557 48%
c
c  seconds   switched     rate         size/glue tier1    binary         remaining
c         MB   reductions   conflicts        size  tier2     irredundant
c           level   restarts      redundant    glue   trail         variables
c
c } 21.77 25 190 0 23 7018 23 75159 17898 3.4 27 8 2 7 27% 8920 64894 12553 48%
c 0 21.77 25 190 0 23 7018 23 75159 17898 3.4 27 8 2 7 27% 8920 64894 12553 48%
c
c ---- [ result ] ------------------------------------------------------------
c
s UNSATISFIABLE
c
c ---- [ profiling ] ---------------------------------------------------------
c
c          15.07   69.24 %  search
c          15.07   69.24 %  focused
c           6.18   28.38 %  simplify
c           5.96   27.38 %  probe
c           2.59   11.92 %  sweep
c           1.85    8.49 %  vivify
c           0.59    2.69 %  factor
c           0.46    2.11 %  eliminate
c           0.43    2.00 %  preprocess
c           0.43    1.96 %  congruence
c           0.36    1.64 %  substitute
c           0.18    0.84 %  fastel
c           0.13    0.59 %  reduce
c           0.10    0.46 %  transitive
c           0.08    0.39 %  subsume
c           0.05    0.24 %  lucky
c           0.05    0.22 %  backbone
c           0.03    0.14 %  parse
c =============================================
c          21.77  100.00 %  total
c
c ---- [ statistics ] --------------------------------------------------------
c
c chronological:                         3403                5 %  conflicts
c conflicts:                            75159             3452.96 per second
c congruent:                              261                1 %  variables
c decisions:                          1768227               23.53 per conflict
c eliminated:                           11783               46 %  variables
c factored:                              5648               22 %  variables
c fast_eliminated:                       9182               78 %  eliminated
c fast_strengthened:                      177               38 %  per strengthened
c fast_subsumed:                          139                2 %  per subsumed
c iterations:                              25                0 %  variables
c propagations:                      77297682          3551220    per second
c reductions:                              23             3268    interval
c reordered:                                4            18790    interval
c restarts:                              7018               11    interval
c strengthened:                           464                0 %  checks
c substituted:                           7139               28 %  variables
c subsumed:                              8665                0 %  checks
c switched:                                 0                0    interval
c vivified:                             48603               18 %  checks
c
c ---- [ glue usage ] --------------------------------------------------------
c
c focused glue 2   used 35169 clauses 26.15% accumulated 71.30% tier1
c focused glue 3   used 10813 clauses  8.04% accumulated 79.34%
c focused glue 4-5 used 11081 clauses  8.24% accumulated 87.58%
c focused glue 6   used  3088 clauses  2.30% accumulated 89.87%
c focused glue 7   used  2347 clauses  1.75% accumulated 91.62% tier2
c
c ---- [ resources ] ---------------------------------------------------------
c
c maximum-resident-set-size:         26722304 bytes         25 MB
c process-time:                            22s              21.77 seconds
c
c ---- [ shutting down ] -----------------------------------------------------
c
c exit 20
